(set-logic HORN)

(declare-datatypes ((TSLL 0)) (((TSLL  (next Int) (opt Int) (data Int)))))
(declare-datatypes ((HeapObject 0)) (((O_Int  (getInt Int)) (O_UInt  (getUInt Int)) (O_Addr  (getAddr Int)) (O_TSLL  (getTSLL TSLL)) (defObj ))))
(declare-datatypes ((Heap 0)) (((HeapCtor  (HeapSize Int) (HeapContents (Array Int HeapObject))))))

(declare-fun |inv_main42| ( Heap Int Int ) Bool)
(declare-fun |inv_main39| ( Heap Int Int ) Bool)
(declare-fun |inv_main33| ( Heap Int Int ) Bool)
(declare-fun |inv_main21| ( Heap Int Int ) Bool)
(declare-fun |inv_main15| ( Heap Int ) Bool)
(declare-fun |inv_main11| ( Heap Int Int ) Bool)
(declare-fun |inv_main31| ( Heap Int Int Int ) Bool)
(declare-fun |inv_main12| ( Heap Int ) Bool)
(declare-fun |inv_main52| ( Heap Int Int ) Bool)
(declare-fun |inv_main2| ( Heap ) Bool)
(declare-fun |inv_main36| ( Heap Int Int ) Bool)
(declare-fun |inv_main6| ( Heap Int ) Bool)
(declare-fun |inv_main32| ( Heap Int Int ) Bool)
(declare-fun |inv_main13| ( Heap Int ) Bool)
(declare-fun |inv_main23| ( Heap Int Int ) Bool)
(declare-fun |inv_main3| ( Heap Int ) Bool)
(declare-fun |inv_main56| ( Heap Int Int ) Bool)
(declare-fun |CHC_COMP_FALSE| ( ) Bool)
(declare-fun |inv_main16| ( Heap Int ) Bool)
(declare-fun |inv_main35| ( Heap Int Int ) Bool)
(declare-fun |inv_main44| ( Heap Int Int Int ) Bool)
(declare-fun |inv_main40| ( Heap Int Int ) Bool)
(declare-fun |inv_main26| ( Heap Int Int ) Bool)
(declare-fun |inv_main10| ( Heap Int ) Bool)
(declare-fun |inv_main30| ( Heap Int Int ) Bool)
(declare-fun |inv_main22| ( Heap Int Int Int ) Bool)
(declare-fun |inv_main17| ( Heap Int Int ) Bool)
(declare-fun |inv_main53| ( Heap Int Int ) Bool)

(assert
  (forall ( (v_0 Heap) ) 
    (=>
      (and
        (and true (= v_0 (HeapCtor 0 ((as const (Array Int HeapObject)) defObj))))
      )
      (inv_main2 v_0)
    )
  )
)
(assert
  (forall ( (A Int) (B Heap) (C TSLL) (D Int) (E Heap) (F Int) (G Heap) ) 
    (=>
      (and
        (inv_main6 G F)
        (let ((a!1 (HeapCtor (+ 1 (HeapSize E))
                     (store (HeapContents E) (+ 1 (HeapSize E)) (O_TSLL C))))
      (a!2 (ite (and (not (<= F 0)) (>= (HeapSize G) F))
                (select (HeapContents G) F)
                defObj)))
(let ((a!3 (O_TSLL (TSLL (next (getTSLL a!2)) (opt (getTSLL a!2)) 2))))
(let ((a!4 (ite (and (not (<= F 0)) (>= (HeapSize G) F))
                (HeapCtor (HeapSize G) (store (HeapContents G) F a!3))
                G)))
  (and (= D F) (= B a!1) (= E a!4) ((_ is O_TSLL) a!2) (= A (+ 1 (HeapSize E)))))))
      )
      (inv_main11 B D A)
    )
  )
)
(assert
  (forall ( (A Int) (B Heap) (C TSLL) (D Int) (E Int) (F Int) (G Heap) ) 
    (=>
      (and
        (inv_main17 G F E)
        (let ((a!1 (HeapCtor (+ 1 (HeapSize G))
                     (store (HeapContents G) (+ 1 (HeapSize G)) (O_TSLL C)))))
  (and (not (= D 0)) (= B a!1) (= A (+ 1 (HeapSize G)))))
      )
      (inv_main22 B F E A)
    )
  )
)
(assert
  (forall ( (A Heap) (B Int) (C Int) (D Heap) ) 
    (=>
      (and
        (inv_main33 D C B)
        (let ((a!1 (ite (and (not (<= B 0)) (>= (HeapSize D) B))
                (select (HeapContents D) B)
                defObj)))
(let ((a!2 (O_TSLL (TSLL (next (getTSLL a!1)) (opt (getTSLL a!1)) 0))))
(let ((a!3 (ite (and (not (<= B 0)) (>= (HeapSize D) B))
                (HeapCtor (HeapSize D) (store (HeapContents D) B a!2))
                D)))
  (and ((_ is O_TSLL) a!1) (= A a!3)))))
      )
      (inv_main36 A C B)
    )
  )
)
(assert
  (forall ( (A Heap) (B Int) (C Int) (D Heap) ) 
    (=>
      (and
        (inv_main32 D C B)
        (let ((a!1 (ite (and (not (<= B 0)) (>= (HeapSize D) B))
                (select (HeapContents D) B)
                defObj)))
(let ((a!2 (O_TSLL (TSLL (next (getTSLL a!1)) (opt (getTSLL a!1)) 1))))
(let ((a!3 (ite (and (not (<= B 0)) (>= (HeapSize D) B))
                (HeapCtor (HeapSize D) (store (HeapContents D) B a!2))
                D)))
  (and ((_ is O_TSLL) a!1) (= A a!3)))))
      )
      (inv_main35 A C B)
    )
  )
)
(assert
  (forall ( (A Int) (B Int) (C Int) (D Heap) (E Int) (F Int) (G Heap) ) 
    (=>
      (and
        (inv_main21 G F E)
        (let ((a!1 (ite (and (not (<= E 0)) (>= (HeapSize G) E))
                (select (HeapContents G) E)
                defObj)))
  (and (= B E) (= A (next (getTSLL a!1))) (= D G) ((_ is O_TSLL) a!1) (= C F)))
      )
      (inv_main23 D C A)
    )
  )
)
(assert
  (forall ( (A Int) (B Int) (C Heap) (D Int) (E Int) (F Int) (G Int) (H Heap) ) 
    (=>
      (and
        (inv_main23 H G F)
        (let ((a!1 (ite (and (not (<= F 0)) (>= (HeapSize H) F))
                (select (HeapContents H) F)
                defObj)))
(let ((a!2 (O_TSLL (TSLL 0 (opt (getTSLL a!1)) (data (getTSLL a!1))))))
(let ((a!3 (ite (and (not (<= F 0)) (>= (HeapSize H) F))
                (HeapCtor (HeapSize H) (store (HeapContents H) F a!2))
                H)))
  (and (= D 0) (= B G) (not (= E 0)) (= C a!3) ((_ is O_TSLL) a!1) (= A F)))))
      )
      (inv_main32 C B A)
    )
  )
)
(assert
  (forall ( (A Int) (B Heap) (C Int) (D Int) (E Int) (F Heap) ) 
    (=>
      (and
        (inv_main3 F E)
        (let ((a!1 (ite (and (not (<= E 0)) (>= (HeapSize F) E))
                (select (HeapContents F) E)
                defObj)))
(let ((a!2 (O_TSLL (TSLL 0 (opt (getTSLL a!1)) (data (getTSLL a!1))))))
(let ((a!3 (ite (and (not (<= E 0)) (>= (HeapSize F) E))
                (HeapCtor (HeapSize F) (store (HeapContents F) E a!2))
                F)))
  (and (= D 0) (= C 0) (= B a!3) ((_ is O_TSLL) a!1) (= A E)))))
      )
      (inv_main13 B A)
    )
  )
)
(assert
  (forall ( (A Int) (B Int) (C Heap) (D Int) (E Int) (F Int) (G Heap) (H Int) (I Int) (J Int) (K Int) (L Heap) ) 
    (=>
      (and
        (inv_main44 L K J I)
        (let ((a!1 (ite (and (not (<= J 0)) (>= (HeapSize L) J))
                (select (HeapContents L) J)
                defObj))
      (a!2 (or (and (= H 1) (= D E)) (and (= H 0) (not (= D E))))))
  (and (= B F)
       (= A E)
       (= E J)
       (not (= H 0))
       (= F K)
       (= I 2)
       (= C G)
       (= G L)
       ((_ is O_TSLL) a!1)
       a!2
       (= D (opt (getTSLL a!1)))))
      )
      (inv_main40 C B A)
    )
  )
)
(assert
  (forall ( (A Int) (B Int) (C Int) (D Heap) ) 
    (=>
      (and
        (inv_main44 D C B A)
        (not (= A 2))
      )
      (inv_main42 D C B)
    )
  )
)
(assert
  (forall ( (A Int) (B Int) (C Heap) (D Int) (E Int) (F Int) (G Heap) (H Int) (I Int) (J Int) (K Int) (L Heap) ) 
    (=>
      (and
        (inv_main44 L K J I)
        (let ((a!1 (ite (and (not (<= J 0)) (>= (HeapSize L) J))
                (select (HeapContents L) J)
                defObj))
      (a!2 (or (and (= H 1) (= D E)) (and (= H 0) (not (= D E))))))
  (and (= B F)
       (= A E)
       (= E J)
       (= H 0)
       (= F K)
       (= I 2)
       (= C G)
       (= G L)
       ((_ is O_TSLL) a!1)
       a!2
       (= D (opt (getTSLL a!1)))))
      )
      (inv_main42 C B A)
    )
  )
)
(assert
  (forall ( (A Heap) (B Int) (C Heap) ) 
    (=>
      (and
        (inv_main12 C B)
        (let ((a!1 (ite (and (not (<= B 0)) (>= (HeapSize C) B))
                (select (HeapContents C) B)
                defObj)))
(let ((a!2 (O_TSLL (TSLL (next (getTSLL a!1)) (opt (getTSLL a!1)) 1))))
(let ((a!3 (ite (and (not (<= B 0)) (>= (HeapSize C) B))
                (HeapCtor (HeapSize C) (store (HeapContents C) B a!2))
                C)))
  (and ((_ is O_TSLL) a!1) (= A a!3)))))
      )
      (inv_main15 A B)
    )
  )
)
(assert
  (forall ( (A Int) (B Int) (C Heap) (D Int) (E Int) (F Int) (G Heap) ) 
    (=>
      (and
        (inv_main23 G F E)
        (let ((a!1 (ite (and (not (<= E 0)) (>= (HeapSize G) E))
                (select (HeapContents G) E)
                defObj)))
(let ((a!2 (O_TSLL (TSLL 0 (opt (getTSLL a!1)) (data (getTSLL a!1))))))
(let ((a!3 (ite (and (not (<= E 0)) (>= (HeapSize G) E))
                (HeapCtor (HeapSize G) (store (HeapContents G) E a!2))
                G)))
  (and (= A E) (not (= D 0)) (= C a!3) ((_ is O_TSLL) a!1) (= B F)))))
      )
      (inv_main26 C B A)
    )
  )
)
(assert
  (forall ( (A Heap) (B Int) (C Int) (D Heap) ) 
    (=>
      (and
        (inv_main11 D C B)
        (let ((a!1 (ite (and (not (<= C 0)) (>= (HeapSize D) C))
                (select (HeapContents D) C)
                defObj)))
(let ((a!2 (O_TSLL (TSLL (next (getTSLL a!1)) B (data (getTSLL a!1))))))
(let ((a!3 (ite (and (not (<= C 0)) (>= (HeapSize D) C))
                (HeapCtor (HeapSize D) (store (HeapContents D) C a!2))
                D)))
  (and ((_ is O_TSLL) a!1) (= A a!3)))))
      )
      (inv_main10 A C)
    )
  )
)
(assert
  (forall ( (A Int) (B Heap) (C TSLL) (D Int) (E Int) (F Heap) (G Int) (H Int) (I Heap) ) 
    (=>
      (and
        (inv_main26 I H G)
        (let ((a!1 (HeapCtor (+ 1 (HeapSize F))
                     (store (HeapContents F) (+ 1 (HeapSize F)) (O_TSLL C))))
      (a!2 (ite (and (not (<= G 0)) (>= (HeapSize I) G))
                (select (HeapContents I) G)
                defObj)))
(let ((a!3 (O_TSLL (TSLL (next (getTSLL a!2)) (opt (getTSLL a!2)) 2))))
(let ((a!4 (ite (and (not (<= G 0)) (>= (HeapSize I) G))
                (HeapCtor (HeapSize I) (store (HeapContents I) G a!3))
                I)))
  (and (= E H)
       (= D G)
       (= B a!1)
       (= F a!4)
       ((_ is O_TSLL) a!2)
       (= A (+ 1 (HeapSize F)))))))
      )
      (inv_main31 B E D A)
    )
  )
)
(assert
  (forall ( (A Int) (B Int) (C Heap) (D Int) (E Int) (F Int) (G Heap) ) 
    (=>
      (and
        (inv_main53 G F E)
        (let ((a!1 (ite (and (not (<= F 0)) (>= (HeapSize G) F))
                (select (HeapContents G) F)
                defObj)))
  (and (= A E)
       (= D 2)
       (= D (data (getTSLL a!1)))
       (= C G)
       ((_ is O_TSLL) a!1)
       (= B F)))
      )
      (inv_main56 C B A)
    )
  )
)
(assert
  (forall ( (A Int) (B Int) (C Int) (D Heap) ) 
    (=>
      (and
        (inv_main39 D C B)
        (let ((a!1 (ite (and (not (<= B 0)) (>= (HeapSize D) B))
                (select (HeapContents D) B)
                defObj)))
  (and ((_ is O_TSLL) a!1) (= A (data (getTSLL a!1)))))
      )
      (inv_main44 D C B A)
    )
  )
)
(assert
  (forall ( (A Heap) (B Int) (C Heap) ) 
    (=>
      (and
        (inv_main13 C B)
        (let ((a!1 (ite (and (not (<= B 0)) (>= (HeapSize C) B))
                (select (HeapContents C) B)
                defObj)))
(let ((a!2 (O_TSLL (TSLL (next (getTSLL a!1)) (opt (getTSLL a!1)) 0))))
(let ((a!3 (ite (and (not (<= B 0)) (>= (HeapSize C) B))
                (HeapCtor (HeapSize C) (store (HeapContents C) B a!2))
                C)))
  (and ((_ is O_TSLL) a!1) (= A a!3)))))
      )
      (inv_main16 A B)
    )
  )
)
(assert
  (forall ( (A Int) (B Heap) (C TSLL) (D Heap) ) 
    (=>
      (and
        (inv_main2 D)
        (let ((a!1 (HeapCtor (+ 1 (HeapSize D))
                     (store (HeapContents D) (+ 1 (HeapSize D)) (O_TSLL C)))))
  (and (= B a!1) (= A (+ 1 (HeapSize D)))))
      )
      (inv_main3 B A)
    )
  )
)
(assert
  (forall ( (A Int) (B Heap) (C Int) (D Int) (E Heap) ) 
    (=>
      (and
        (inv_main3 E D)
        (let ((a!1 (ite (and (not (<= D 0)) (>= (HeapSize E) D))
                (select (HeapContents E) D)
                defObj)))
(let ((a!2 (O_TSLL (TSLL 0 (opt (getTSLL a!1)) (data (getTSLL a!1))))))
(let ((a!3 (ite (and (not (<= D 0)) (>= (HeapSize E) D))
                (HeapCtor (HeapSize E) (store (HeapContents E) D a!2))
                E)))
  (and (not (= C 0)) (= B a!3) ((_ is O_TSLL) a!1) (= A D)))))
      )
      (inv_main6 B A)
    )
  )
)
(assert
  (forall ( (A Int) (B Int) (C Int) (D Heap) (E Int) (F Int) (G Heap) ) 
    (=>
      (and
        (inv_main52 G F E)
        (let ((a!1 (ite (and (not (<= E 0)) (>= (HeapSize G) E))
                (select (HeapContents G) E)
                defObj)))
  (and (= B E) (= A (next (getTSLL a!1))) (= D G) ((_ is O_TSLL) a!1) (= C F)))
      )
      (inv_main53 D C A)
    )
  )
)
(assert
  (forall ( (A Heap) (B Int) (C Int) (D Int) (E Heap) ) 
    (=>
      (and
        (inv_main22 E D C B)
        (let ((a!1 (ite (and (not (<= C 0)) (>= (HeapSize E) C))
                (select (HeapContents E) C)
                defObj)))
(let ((a!2 (O_TSLL (TSLL B (opt (getTSLL a!1)) (data (getTSLL a!1))))))
(let ((a!3 (ite (and (not (<= C 0)) (>= (HeapSize E) C))
                (HeapCtor (HeapSize E) (store (HeapContents E) C a!2))
                E)))
  (and ((_ is O_TSLL) a!1) (= A a!3)))))
      )
      (inv_main21 A D C)
    )
  )
)
(assert
  (forall ( (A Int) (B Heap) (C Int) (D Int) (E Int) (F Heap) ) 
    (=>
      (and
        (inv_main3 F E)
        (let ((a!1 (ite (and (not (<= E 0)) (>= (HeapSize F) E))
                (select (HeapContents F) E)
                defObj)))
(let ((a!2 (O_TSLL (TSLL 0 (opt (getTSLL a!1)) (data (getTSLL a!1))))))
(let ((a!3 (ite (and (not (<= E 0)) (>= (HeapSize F) E))
                (HeapCtor (HeapSize F) (store (HeapContents F) E a!2))
                F)))
  (and (not (= D 0)) (= C 0) (= B a!3) ((_ is O_TSLL) a!1) (= A E)))))
      )
      (inv_main12 B A)
    )
  )
)
(assert
  (forall ( (A Int) (B Int) (C Heap) (D Int) (E Int) (F Int) (G Heap) ) 
    (=>
      (and
        (inv_main40 G F E)
        (let ((a!1 (ite (and (not (<= E 0)) (>= (HeapSize G) E))
                (select (HeapContents G) E)
                defObj)))
  (and (= A E)
       (not (= D 0))
       (= D (next (getTSLL a!1)))
       (= C G)
       ((_ is O_TSLL) a!1)
       (= B F)))
      )
      (inv_main39 C B D)
    )
  )
)
(assert
  (forall ( (A Int) (B Int) (C Int) (D Heap) (v_4 Int) ) 
    (=>
      (and
        (inv_main17 D C B)
        (and (not (= C 0)) (= A 0) (= v_4 C))
      )
      (inv_main39 D C v_4)
    )
  )
)
(assert
  (forall ( (A Heap) (B Int) (C Int) (D Heap) ) 
    (=>
      (and
        (inv_main30 D C B)
        (let ((a!1 (ite (and (not (<= B 0)) (>= (HeapSize D) B))
                (select (HeapContents D) B)
                defObj)))
(let ((a!2 (not (<= (opt (getTSLL a!1)) 0))))
(let ((a!3 (and a!2 (>= (HeapSize D) (opt (getTSLL a!1))))))
(let ((a!4 (ite a!3 (select (HeapContents D) (opt (getTSLL a!1))) defObj)))
(let ((a!5 (O_TSLL (TSLL 0 (opt (getTSLL a!4)) (data (getTSLL a!4))))))
(let ((a!6 (HeapCtor (HeapSize D)
                     (store (HeapContents D) (opt (getTSLL a!1)) a!5))))
  (and ((_ is O_TSLL) a!4) ((_ is O_TSLL) a!1) (= A (ite a!3 a!6 D)))))))))
      )
      (inv_main17 A C B)
    )
  )
)
(assert
  (forall ( (A Heap) (B Int) (C Int) (D Heap) ) 
    (=>
      (and
        (inv_main35 D C B)
        (let ((a!1 (ite (and (not (<= B 0)) (>= (HeapSize D) B))
                (select (HeapContents D) B)
                defObj)))
(let ((a!2 (O_TSLL (TSLL (next (getTSLL a!1)) B (data (getTSLL a!1))))))
(let ((a!3 (ite (and (not (<= B 0)) (>= (HeapSize D) B))
                (HeapCtor (HeapSize D) (store (HeapContents D) B a!2))
                D)))
  (and ((_ is O_TSLL) a!1) (= A a!3)))))
      )
      (inv_main17 A C B)
    )
  )
)
(assert
  (forall ( (A Heap) (B Int) (C Int) (D Heap) ) 
    (=>
      (and
        (inv_main36 D C B)
        (let ((a!1 (ite (and (not (<= B 0)) (>= (HeapSize D) B))
                (select (HeapContents D) B)
                defObj)))
(let ((a!2 (O_TSLL (TSLL (next (getTSLL a!1)) B (data (getTSLL a!1))))))
(let ((a!3 (ite (and (not (<= B 0)) (>= (HeapSize D) B))
                (HeapCtor (HeapSize D) (store (HeapContents D) B a!2))
                D)))
  (and ((_ is O_TSLL) a!1) (= A a!3)))))
      )
      (inv_main17 A C B)
    )
  )
)
(assert
  (forall ( (A Int) (B Heap) (C Int) (D Heap) (v_4 Int) ) 
    (=>
      (and
        (inv_main10 D C)
        (let ((a!1 (ite (and (not (<= C 0)) (>= (HeapSize D) C))
                (select (HeapContents D) C)
                defObj)))
(let ((a!2 (not (<= (opt (getTSLL a!1)) 0))))
(let ((a!3 (and a!2 (>= (HeapSize D) (opt (getTSLL a!1))))))
(let ((a!4 (ite a!3 (select (HeapContents D) (opt (getTSLL a!1))) defObj)))
(let ((a!5 (O_TSLL (TSLL 0 (opt (getTSLL a!4)) (data (getTSLL a!4))))))
(let ((a!6 (HeapCtor (HeapSize D)
                     (store (HeapContents D) (opt (getTSLL a!1)) a!5))))
  (and (= B (ite a!3 a!6 D))
       ((_ is O_TSLL) a!4)
       ((_ is O_TSLL) a!1)
       (= A C)
       (= v_4 A))))))))
      )
      (inv_main17 B A v_4)
    )
  )
)
(assert
  (forall ( (A Int) (B Heap) (C Int) (D Heap) (v_4 Int) ) 
    (=>
      (and
        (inv_main15 D C)
        (let ((a!1 (ite (and (not (<= C 0)) (>= (HeapSize D) C))
                (select (HeapContents D) C)
                defObj)))
(let ((a!2 (O_TSLL (TSLL (next (getTSLL a!1)) C (data (getTSLL a!1))))))
(let ((a!3 (ite (and (not (<= C 0)) (>= (HeapSize D) C))
                (HeapCtor (HeapSize D) (store (HeapContents D) C a!2))
                D)))
  (and (= B a!3) ((_ is O_TSLL) a!1) (= A C) (= v_4 A)))))
      )
      (inv_main17 B A v_4)
    )
  )
)
(assert
  (forall ( (A Int) (B Heap) (C Int) (D Heap) (v_4 Int) ) 
    (=>
      (and
        (inv_main16 D C)
        (let ((a!1 (ite (and (not (<= C 0)) (>= (HeapSize D) C))
                (select (HeapContents D) C)
                defObj)))
(let ((a!2 (O_TSLL (TSLL (next (getTSLL a!1)) C (data (getTSLL a!1))))))
(let ((a!3 (ite (and (not (<= C 0)) (>= (HeapSize D) C))
                (HeapCtor (HeapSize D) (store (HeapContents D) C a!2))
                D)))
  (and (= B a!3) ((_ is O_TSLL) a!1) (= A C) (= v_4 A)))))
      )
      (inv_main17 B A v_4)
    )
  )
)
(assert
  (forall ( (A Heap) (B Int) (C Int) (D Int) (E Heap) ) 
    (=>
      (and
        (inv_main31 E D C B)
        (let ((a!1 (ite (and (not (<= C 0)) (>= (HeapSize E) C))
                (select (HeapContents E) C)
                defObj)))
(let ((a!2 (O_TSLL (TSLL (next (getTSLL a!1)) B (data (getTSLL a!1))))))
(let ((a!3 (ite (and (not (<= C 0)) (>= (HeapSize E) C))
                (HeapCtor (HeapSize E) (store (HeapContents E) C a!2))
                E)))
  (and ((_ is O_TSLL) a!1) (= A a!3)))))
      )
      (inv_main30 A D C)
    )
  )
)
(assert
  (forall ( (A Int) (B Heap) (C Int) (D Int) (E Int) (F Int) (G Heap) (v_7 Int) ) 
    (=>
      (and
        (inv_main40 G F E)
        (let ((a!1 (ite (and (not (<= E 0)) (>= (HeapSize G) E))
                (select (HeapContents G) E)
                defObj)))
  (and (= C (next (getTSLL a!1)))
       (= A E)
       (not (= D 0))
       (= D F)
       (= B G)
       ((_ is O_TSLL) a!1)
       (= C 0)
       (= v_7 D)))
      )
      (inv_main52 B D v_7)
    )
  )
)
(assert
  (forall ( (A Int) (B Heap) (C Int) (D Int) (E Heap) (F Int) (G Int) (H Int) (I Heap) (v_9 Int) ) 
    (=>
      (and
        (inv_main56 I H G)
        (let ((a!1 (ite (and (not (<= D 0)) (>= (HeapSize E) D))
                (HeapCtor (HeapSize E) (store (HeapContents E) D defObj))
                E))
      (a!2 (ite (and (not (<= H 0)) (>= (HeapSize I) H))
                (select (HeapContents I) H)
                defObj)))
(let ((a!3 (not (<= (opt (getTSLL a!2)) 0)))
      (a!5 (HeapCtor (HeapSize I)
                     (store (HeapContents I) (opt (getTSLL a!2)) defObj))))
(let ((a!4 (and a!3 (>= (HeapSize I) (opt (getTSLL a!2))))))
  (and (= D H)
       (= C G)
       (not (= F 0))
       (= F C)
       (= B a!1)
       (= E (ite a!4 a!5 I))
       ((_ is O_TSLL) a!2)
       (= A D)
       (= v_9 F)))))
      )
      (inv_main52 B F v_9)
    )
  )
)
(assert
  (forall ( (A Int) (B Heap) (C Int) (D Int) (E Heap) (F Int) (G Int) (H Int) (I Int) (J Heap) (v_10 Int) ) 
    (=>
      (and
        (inv_main53 J I H)
        (let ((a!1 (ite (and (not (<= I 0)) (>= (HeapSize J) I))
                (select (HeapContents J) I)
                defObj))
      (a!2 (ite (and (not (<= D 0)) (>= (HeapSize E) D))
                (HeapCtor (HeapSize E) (store (HeapContents E) D defObj))
                E)))
  (and (= C H)
       (not (= F 2))
       (= F (data (getTSLL a!1)))
       (= D I)
       (not (= G 0))
       (= G C)
       (= B a!2)
       (= E J)
       ((_ is O_TSLL) a!1)
       (= A D)
       (= v_10 G)))
      )
      (inv_main52 B G v_10)
    )
  )
)
(assert
  (forall ( (A Int) (B Int) (C Heap) (D Int) (E Int) (F Int) (G Int) (H Heap) ) 
    (=>
      (and
        (inv_main23 H G F)
        (let ((a!1 (ite (and (not (<= F 0)) (>= (HeapSize H) F))
                (select (HeapContents H) F)
                defObj)))
(let ((a!2 (O_TSLL (TSLL 0 (opt (getTSLL a!1)) (data (getTSLL a!1))))))
(let ((a!3 (ite (and (not (<= F 0)) (>= (HeapSize H) F))
                (HeapCtor (HeapSize H) (store (HeapContents H) F a!2))
                H)))
  (and (= D 0) (= B G) (= E 0) (= C a!3) ((_ is O_TSLL) a!1) (= A F)))))
      )
      (inv_main33 C B A)
    )
  )
)
(assert
  (forall ( (A Int) (B Heap) ) 
    (=>
      (and
        (inv_main3 B A)
        (let ((a!1 (ite (and (not (<= A 0)) (>= (HeapSize B) A))
                (select (HeapContents B) A)
                defObj)))
  (not ((_ is O_TSLL) a!1)))
      )
      CHC_COMP_FALSE
    )
  )
)
(assert
  (forall ( (A Int) (B Heap) ) 
    (=>
      (and
        (inv_main6 B A)
        (let ((a!1 (ite (and (not (<= A 0)) (>= (HeapSize B) A))
                (select (HeapContents B) A)
                defObj)))
  (not ((_ is O_TSLL) a!1)))
      )
      CHC_COMP_FALSE
    )
  )
)
(assert
  (forall ( (A Int) (B Int) (C Heap) ) 
    (=>
      (and
        (inv_main11 C B A)
        (let ((a!1 (ite (and (not (<= B 0)) (>= (HeapSize C) B))
                (select (HeapContents C) B)
                defObj)))
  (not ((_ is O_TSLL) a!1)))
      )
      CHC_COMP_FALSE
    )
  )
)
(assert
  (forall ( (A Int) (B Heap) ) 
    (=>
      (and
        (inv_main10 B A)
        (let ((a!1 (ite (and (not (<= A 0)) (>= (HeapSize B) A))
                (select (HeapContents B) A)
                defObj)))
  (not ((_ is O_TSLL) a!1)))
      )
      CHC_COMP_FALSE
    )
  )
)
(assert
  (forall ( (A Int) (B Heap) ) 
    (=>
      (and
        (inv_main10 B A)
        (let ((a!1 (ite (and (not (<= A 0)) (>= (HeapSize B) A))
                (select (HeapContents B) A)
                defObj)))
(let ((a!2 (not (<= (opt (getTSLL a!1)) 0))))
(let ((a!3 (and a!2 (>= (HeapSize B) (opt (getTSLL a!1))))))
(let ((a!4 (ite a!3 (select (HeapContents B) (opt (getTSLL a!1))) defObj)))
  (and ((_ is O_TSLL) a!1) (not ((_ is O_TSLL) a!4)))))))
      )
      CHC_COMP_FALSE
    )
  )
)
(assert
  (forall ( (A Int) (B Heap) ) 
    (=>
      (and
        (inv_main12 B A)
        (let ((a!1 (ite (and (not (<= A 0)) (>= (HeapSize B) A))
                (select (HeapContents B) A)
                defObj)))
  (not ((_ is O_TSLL) a!1)))
      )
      CHC_COMP_FALSE
    )
  )
)
(assert
  (forall ( (A Int) (B Heap) ) 
    (=>
      (and
        (inv_main15 B A)
        (let ((a!1 (ite (and (not (<= A 0)) (>= (HeapSize B) A))
                (select (HeapContents B) A)
                defObj)))
  (not ((_ is O_TSLL) a!1)))
      )
      CHC_COMP_FALSE
    )
  )
)
(assert
  (forall ( (A Int) (B Heap) ) 
    (=>
      (and
        (inv_main13 B A)
        (let ((a!1 (ite (and (not (<= A 0)) (>= (HeapSize B) A))
                (select (HeapContents B) A)
                defObj)))
  (not ((_ is O_TSLL) a!1)))
      )
      CHC_COMP_FALSE
    )
  )
)
(assert
  (forall ( (A Int) (B Heap) ) 
    (=>
      (and
        (inv_main16 B A)
        (let ((a!1 (ite (and (not (<= A 0)) (>= (HeapSize B) A))
                (select (HeapContents B) A)
                defObj)))
  (not ((_ is O_TSLL) a!1)))
      )
      CHC_COMP_FALSE
    )
  )
)
(assert
  (forall ( (A Int) (B Int) (C Int) (D Heap) ) 
    (=>
      (and
        (inv_main22 D C B A)
        (let ((a!1 (ite (and (not (<= B 0)) (>= (HeapSize D) B))
                (select (HeapContents D) B)
                defObj)))
  (not ((_ is O_TSLL) a!1)))
      )
      CHC_COMP_FALSE
    )
  )
)
(assert
  (forall ( (A Int) (B Int) (C Heap) ) 
    (=>
      (and
        (inv_main21 C B A)
        (let ((a!1 (ite (and (not (<= A 0)) (>= (HeapSize C) A))
                (select (HeapContents C) A)
                defObj)))
  (not ((_ is O_TSLL) a!1)))
      )
      CHC_COMP_FALSE
    )
  )
)
(assert
  (forall ( (A Int) (B Int) (C Heap) ) 
    (=>
      (and
        (inv_main23 C B A)
        (let ((a!1 (ite (and (not (<= A 0)) (>= (HeapSize C) A))
                (select (HeapContents C) A)
                defObj)))
  (not ((_ is O_TSLL) a!1)))
      )
      CHC_COMP_FALSE
    )
  )
)
(assert
  (forall ( (A Int) (B Int) (C Heap) ) 
    (=>
      (and
        (inv_main26 C B A)
        (let ((a!1 (ite (and (not (<= A 0)) (>= (HeapSize C) A))
                (select (HeapContents C) A)
                defObj)))
  (not ((_ is O_TSLL) a!1)))
      )
      CHC_COMP_FALSE
    )
  )
)
(assert
  (forall ( (A Int) (B Int) (C Int) (D Heap) ) 
    (=>
      (and
        (inv_main31 D C B A)
        (let ((a!1 (ite (and (not (<= B 0)) (>= (HeapSize D) B))
                (select (HeapContents D) B)
                defObj)))
  (not ((_ is O_TSLL) a!1)))
      )
      CHC_COMP_FALSE
    )
  )
)
(assert
  (forall ( (A Int) (B Int) (C Heap) ) 
    (=>
      (and
        (inv_main30 C B A)
        (let ((a!1 (ite (and (not (<= A 0)) (>= (HeapSize C) A))
                (select (HeapContents C) A)
                defObj)))
  (not ((_ is O_TSLL) a!1)))
      )
      CHC_COMP_FALSE
    )
  )
)
(assert
  (forall ( (A Int) (B Int) (C Heap) ) 
    (=>
      (and
        (inv_main30 C B A)
        (let ((a!1 (ite (and (not (<= A 0)) (>= (HeapSize C) A))
                (select (HeapContents C) A)
                defObj)))
(let ((a!2 (not (<= (opt (getTSLL a!1)) 0))))
(let ((a!3 (and a!2 (>= (HeapSize C) (opt (getTSLL a!1))))))
(let ((a!4 (ite a!3 (select (HeapContents C) (opt (getTSLL a!1))) defObj)))
  (and ((_ is O_TSLL) a!1) (not ((_ is O_TSLL) a!4)))))))
      )
      CHC_COMP_FALSE
    )
  )
)
(assert
  (forall ( (A Int) (B Int) (C Heap) ) 
    (=>
      (and
        (inv_main32 C B A)
        (let ((a!1 (ite (and (not (<= A 0)) (>= (HeapSize C) A))
                (select (HeapContents C) A)
                defObj)))
  (not ((_ is O_TSLL) a!1)))
      )
      CHC_COMP_FALSE
    )
  )
)
(assert
  (forall ( (A Int) (B Int) (C Heap) ) 
    (=>
      (and
        (inv_main35 C B A)
        (let ((a!1 (ite (and (not (<= A 0)) (>= (HeapSize C) A))
                (select (HeapContents C) A)
                defObj)))
  (not ((_ is O_TSLL) a!1)))
      )
      CHC_COMP_FALSE
    )
  )
)
(assert
  (forall ( (A Int) (B Int) (C Heap) ) 
    (=>
      (and
        (inv_main33 C B A)
        (let ((a!1 (ite (and (not (<= A 0)) (>= (HeapSize C) A))
                (select (HeapContents C) A)
                defObj)))
  (not ((_ is O_TSLL) a!1)))
      )
      CHC_COMP_FALSE
    )
  )
)
(assert
  (forall ( (A Int) (B Int) (C Heap) ) 
    (=>
      (and
        (inv_main36 C B A)
        (let ((a!1 (ite (and (not (<= A 0)) (>= (HeapSize C) A))
                (select (HeapContents C) A)
                defObj)))
  (not ((_ is O_TSLL) a!1)))
      )
      CHC_COMP_FALSE
    )
  )
)
(assert
  (forall ( (A Int) (B Int) (C Heap) ) 
    (=>
      (and
        (inv_main39 C B A)
        (let ((a!1 (ite (and (not (<= A 0)) (>= (HeapSize C) A))
                (select (HeapContents C) A)
                defObj)))
  (not ((_ is O_TSLL) a!1)))
      )
      CHC_COMP_FALSE
    )
  )
)
(assert
  (forall ( (A Int) (B Int) (C Int) (D Heap) ) 
    (=>
      (and
        (inv_main44 D C B A)
        (let ((a!1 (ite (and (not (<= B 0)) (>= (HeapSize D) B))
                (select (HeapContents D) B)
                defObj)))
  (and (not ((_ is O_TSLL) a!1)) (= A 2)))
      )
      CHC_COMP_FALSE
    )
  )
)
(assert
  (forall ( (A Int) (B Int) (C Heap) ) 
    (=>
      (and
        (inv_main42 C B A)
        true
      )
      CHC_COMP_FALSE
    )
  )
)
(assert
  (forall ( (A Int) (B Int) (C Heap) ) 
    (=>
      (and
        (inv_main40 C B A)
        (let ((a!1 (ite (and (not (<= A 0)) (>= (HeapSize C) A))
                (select (HeapContents C) A)
                defObj)))
  (not ((_ is O_TSLL) a!1)))
      )
      CHC_COMP_FALSE
    )
  )
)
(assert
  (forall ( (A Int) (B Int) (C Heap) ) 
    (=>
      (and
        (inv_main52 C B A)
        (let ((a!1 (ite (and (not (<= A 0)) (>= (HeapSize C) A))
                (select (HeapContents C) A)
                defObj)))
  (not ((_ is O_TSLL) a!1)))
      )
      CHC_COMP_FALSE
    )
  )
)
(assert
  (forall ( (A Int) (B Int) (C Heap) ) 
    (=>
      (and
        (inv_main53 C B A)
        (let ((a!1 (ite (and (not (<= B 0)) (>= (HeapSize C) B))
                (select (HeapContents C) B)
                defObj)))
  (not ((_ is O_TSLL) a!1)))
      )
      CHC_COMP_FALSE
    )
  )
)
(assert
  (forall ( (A Int) (B Int) (C Heap) ) 
    (=>
      (and
        (inv_main56 C B A)
        (let ((a!1 (ite (and (not (<= B 0)) (>= (HeapSize C) B))
                (select (HeapContents C) B)
                defObj)))
  (not ((_ is O_TSLL) a!1)))
      )
      CHC_COMP_FALSE
    )
  )
)
(assert
  (forall ( (CHC_COMP_UNUSED Bool) ) 
    (=>
      (and
        CHC_COMP_FALSE
      )
      false
    )
  )
)

(check-sat)
(exit)
